20
5
20803
395 438 277 90 96
false
0.25
21 40 42 44 36 42 32 46 13 20 14 22 47 24 38 24 19 35 7 30
38 22 40 16 7 11 25 6 39 30 37 14 41 26 43 42 2 8 37 25
10 24 9 12 22 14 29 20 1 22 36 50 13 41 48 40 45 18 8 43
33 49 45 14 11 26 25 27 38 21 34 47 19 7 31 19 8 34 15 13
28 32 3 38 49 47 24 46 8 39 38 8 24 35 42 30 34 40 21 44
43 26 72 28 15 90 95 1 68 9 26 52 17 16 5 91 75 26 10 98
0 69 36 46 0 0 0 0 0 0 0 23 0 0 0 0 43 0 0 92
0 0 0 0 0 0 0 0 0 0 0 0 25 0 0 24 26 84 0
0 0 31 0 0 0 0 0 62 9 53 0 0 71 0 0 40 74
0 96 0 0 0 0 0 0 0 0 0 1 0 94 0 5 0
0 0 0 0 0 45 0 18 0 0 0 0 0 84 0 0
0 0 0 0 0 0 30 26 0 0 0 0 0 0 0
0 0 44 0 0 46 0 0 3 0 90 0 2 0
0 95 28 0 44 0 0 90 0 87 77 0 0
0 0 0 0 0 0 31 0 78 99 0 50
0 0 0 0 0 47 0 0 46 0 0
0 37 0 5 0 0 0 0 0 0
0 0 0 0 67 0 0 8 0
0 68 0 0 0 58 0 2
0 0 74 0 0 0 0
0 0 0 73 0 0
0 0 0 25 0
0 0 0 0
0 0 0
0 0
0 0 0 94 0 0 0 0 0 0 0 88 19 21 0 0 0 0 47
0 0 0 59 0 0 0 0 0 0 0 0 0 0 50 0 96 0
0 0 0 0 0 0 0 0 100 0 0 0 0 0 0 0 40
0 59 0 4 0 34 0 0 91 0 0 0 0 62 27 0
0 55 52 0 0 86 46 0 86 23 0 89 0 13 69
0 0 36 0 47 61 75 0 4 0 85 0 16 0
0 0 0 0 0 40 0 4 0 0 0 26 0
0 0 0 0 0 0 0 0 48 37 58 64
0 0 0 0 0 0 0 0 0 7 30
0 69 0 0 0 0 0 84 0 0
0 0 0 0 14 11 0 0 0
0 0 0 0 0 73 0 0
0 2 0 71 0 86 0
0 0 0 0 0 0
0 0 0 51 0
0 0 0 98
0 0 62
0 0
0
0 27 90 0 99 0 0 54 0 0 0 30 0 0 0 0 0 0
0 0 75 0 0 0 0 37 0 0 0 0 0 0 0 0 45
0 0 0 0 0 0 0 0 0 0 0 12 0 68 0 100
0 33 0 11 50 0 0 0 0 0 3 0 0 0 0
0 0 0 39 34 86 0 3 0 0 0 0 0 28
0 91 0 0 0 0 82 16 0 0 0 0 0
0 0 65 0 22 0 0 0 0 0 0 32
0 0 0 0 29 68 44 75 0 81 0
0 10 0 0 0 0 0 0 0 66
0 0 0 0 0 0 0 0 34
0 69 0 0 0 52 38 57
0 0 0 35 71 0 8
0 0 60 0 0 0
0 0 46 0 51
0 0 0 0
0 0 0
0 0
0
0 0 0 0 19 80 0 0 0 0 90 0 0 0 0 48 0
0 0 0 0 0 0 31 3 0 30 47 0 0 87 10 12
0 59 0 0 0 0 0 10 0 55 0 0 20 0 0
0 0 0 0 0 0 0 0 0 0 0 0 0 0
0 0 0 0 46 63 0 89 0 0 0 0 0
0 0 40 0 0 61 0 0 0 0 0 80
0 0 0 0 0 0 65 98 0 83 0
0 0 0 0 85 0 0 0 0 0
0 0 0 0 0 11 0 27 46
0 90 55 20 0 0 0 0
0 80 0 34 0 0 0
0 0 0 0 45 0
0 0 0 0 0
0 0 0 0
0 14 0
0 0
0
0 15 0 0 0 0 0 0 58 0 97 0 0 0 0 0
0 0 0 0 0 0 0 0 0 0 0 0 0 0 77
0 0 0 31 0 0 0 0 0 0 0 39 0 0
0 0 0 0 0 0 0 0 71 0 0 0 11
0 0 0 0 0 0 0 0 0 0 97 4
0 0 71 0 36 0 0 0 0 0 0
0 0 0 0 0 0 67 0 0 0
0 0 0 0 0 0 0 0 0
0 0 0 0 0 0 0 0
0 6 0 0 0 0 48
0 0 0 0 0 0
0 0 0 0 0
0 0 0 0
0 0 0
0 0
0
0 68 0 52 0 0 0 0 0 0 83 0 31 0 0
0 0 0 0 0 0 94 0 0 0 88 8 0 0
0 0 68 0 0 97 0 0 0 0 15 0 0
0 84 0 85 0 0 0 0 0 0 0 36
0 0 0 85 68 88 27 0 0 0 12
0 97 0 0 0 0 0 0 78 42
0 0 0 65 0 7 0 0 11
0 0 82 0 0 0 0 0
0 14 0 0 0 0 0
0 0 0 0 0 34
0 0 0 87 0
0 0 15 0
0 0 0
0 28
0
0 0 33 0 79 0 0 42 0 0 0 0 0 0
0 95 42 0 0 0 92 46 5 0 0 0 6
0 0 0 0 0 0 8 0 0 0 0 0
0 0 66 46 0 0 0 0 15 0 0
0 24 74 0 0 0 71 17 65 0
0 0 0 0 30 28 0 81 0
0 0 0 0 0 0 0 0
0 0 0 33 56 0 0
0 0 0 0 96 0
0 69 0 0 0
0 0 0 0
0 27 62
0 0
0
0 0 0 0 78 0 0 0 0 0 49 0 0
0 0 0 0 29 0 0 0 0 1 0 0
0 0 61 44 0 97 0 0 87 43 0
0 0 0 0 0 0 0 0 0 0
0 0 0 0 43 55 7 0 0
0 100 81 0 0 41 53 0
0 0 0 0 0 62 0
0 94 0 0 0 0
0 0 0 0 50
0 17 25 0
0 14 0
0 38
0
0 63 0 58 0 22 13 0 14 0 0 88
0 6 22 19 0 0 0 95 0 0 0
0 43 39 0 41 67 0 0 0 9
0 8 0 0 0 9 0 0 48
0 0 0 1 72 0 91 95
0 0 0 0 0 41 23
0 0 0 3 0 36
0 0 68 91 0
0 0 0 0
0 0 0
0 0
0
0 80 0 0 0 0 0 0 44 0 0
0 0 0 0 64 0 0 0 0 0
0 0 0 91 0 44 0 64 84
0 0 0 0 83 0 14 0
0 0 0 0 0 58 0
0 0 0 0 0 0
0 0 0 96 0
0 91 0 0
0 0 0
0 0
0
0 0 0 0 78 0 1 0 0 0
0 0 0 0 83 95 0 0 65
0 0 15 0 0 60 86 0
0 0 0 29 0 0 63
0 63 0 0 0 0
0 0 0 74 0
0 0 0 97
0 36 0
0 0
0
0 0 0 0 0 0 29 0 0
0 59 0 0 0 0 0 0
0 0 0 71 0 0 10
0 0 57 40 0 0
0 0 0 0 0
0 0 0 0
0 0 0
0 0
0
0 0 0 0 74 15 0 0
0 60 62 0 0 0 0
0 0 96 0 0 0
0 61 7 0 0
0 0 0 0
0 0 0
0 70
0
0 0 0 28 18 0 0
0 0 40 0 0 0
0 0 0 91 0
0 16 0 21
0 35 0
0 0
0
0 44 0 0 0 0
0 0 0 0 65
0 58 0 33
0 0 0
0 66
0
0 0 0 0 0
0 0 0 0
0 0 0
0 0
0
0 77 0 0
0 96 0
0 0
0
0 89 0
0 52
0
0 0
0
0
3021 2649 2686 1559 2969 2733 2691 2814 2785 3177 2092 2895 2931 2531 2453 2239 3134 2433 2859 2669
144.9790909090909 86.77031307977737 276.9138095238095 83.0338886990203 194.4141104926819 134.40091610517143 100.85837068965517 167.25400966183574 698.4110998650472 128.38126873126873 76.13245328477527 163.94947361149488 127.13984067239673 139.6843817564549 62.04742080726949 79.01032581453634 457.10365669074645 128.23795518207285 233.96333976833975 104.75264346506208
